%%% static parameters %%%
timespan = 1;
Fact = [2];
Distr1 = [5];
Distr2 = [10];
Clients_N = [120];
Demand_W = [15];
Lt0 = [4];
Lt1 = [4];
SS_ = [0.85];
DS_D = [5];
K = [200];
MA = [500];
%%% dynamic parameters %%%
lost_ratio_sales_ret_th = 0.09118059154874925;
lost_ratio_sales_ret_w = 27;
lost_ratio_sales_dis_th = 0.746632122341473;
lost_ratio_sales_dis_w = 20;
lost_ratio_sales_fac_th = 0.7742457715905214;
lost_ratio_sales_fac_w = 71;
stock_customer_MA_mean_relative_th = 0.5312582402314703;
stock_customer_MA_mean_relative_w = 77;
stock_distributor_MA_mean_relative_th = 0.2159548987442993;
stock_distributor_MA_mean_relative_w = 6;
stock_retailer_MA_mean_relative_th = 0.875254813737374;
stock_retailer_MA_mean_relative_w = 73;
stock_factory_MA_mean_relative_th = 0.2361644317984235;
stock_factory_MA_mean_relative_w = 87;
